
n_res = 6;
rcap = [59, 61, 280, 289, 259, 290];
rtype = [1, 1, 2, 2, 2, 2];
n_tasks = 50;
modes =  [{1, 2, 3}, {4, 5, 6}, {7, 8, 9}, {10, 11, 12}, {13, 14, 15}, {16, 17, 18}, {19, 20, 21}, {22, 23, 24}, {25, 26, 27}, {28, 29, 30}, {31, 32, 33}, {34, 35, 36}, {37, 38, 39}, {40, 41, 42}, {43, 44, 45}, {46, 47, 48}, {49, 50, 51}, {52, 53, 54}, {55, 56, 57}, {58, 59, 60}, {61, 62, 63}, {64, 65, 66}, {67, 68, 69}, {70, 71, 72}, {73, 74, 75}, {76, 77, 78}, {79, 80, 81}, {82, 83, 84}, {85, 86, 87}, {88, 89, 90}, {91, 92, 93}, {94, 95, 96}, {97, 98, 99}, {100, 101, 102}, {103, 104, 105}, {106, 107, 108}, {109, 110, 111}, {112, 113, 114}, {115, 116, 117}, {118, 119, 120}, {121, 122, 123}, {124, 125, 126}, {127, 128, 129}, {130, 131, 132}, {133, 134, 135}, {136, 137, 138}, {139, 140, 141}, {142, 143, 144}, {145, 146, 147}, {148, 149, 150}];
succ =  [{34, 29, 24, 17, 4}, {50, 49, 48, 35, 34, 33, 32, 31, 30, 28, 27, 25, 22, 17}, {49, 48, 47, 37, 29, 24, 19, 17, 15}, {49, 36, 35, 33, 32, 31, 28, 27, 25, 18}, {50, 36, 32, 31, 26, 25, 21, 10}, {31, 28, 27, 26, 25, 19, 18}, {47, 46, 31, 29, 28, 27, 25, 24}, {49, 48, 47, 44, 40, 36, 32, 31, 27}, {42, 40, 32, 30, 28, 25}, {49, 48, 47, 46, 42, 40, 39, 28}, {48, 46, 42, 40, 35, 25}, {48, 38, 33, 31, 25}, {50, 48, 47, 46, 45, 44, 43, 40, 39}, {49, 40, 31, 29, 27}, {44, 43, 42, 40, 31, 27}, {49, 46, 41, 40, 25}, {46, 45, 44, 43, 41, 40, 39}, {50, 48, 47, 46, 42, 41, 40}, {43, 34, 33, 32}, {50, 47, 46, 44, 43, 40}, {45, 43, 40, 27}, {47, 46, 45, 41, 40}, {48, 45, 44, 40, 39}, {44, 42, 40, 32}, {44, 43, 39}, {47, 42, 39}, {41, 39}, {45, 41}, {45, 42}, {43, 39}, {39}, {39}, {42}, {40}, {41}, {39}, {41}, {40}, {}, {}, {}, {}, {}, {}, {}, {}, {}, {}, {}, {}];
n_opt = 150;
dur = [2, 3, 7, 2, 4, 9, 2, 8, 10, 3, 5, 8, 1, 5, 6, 2, 7, 8, 2, 4, 5, 4, 5, 6, 7, 8, 9, 6, 7, 10, 4, 5, 8, 1, 2, 3, 8, 9, 10, 1, 2, 9, 2, 4, 8, 4, 5, 8, 1, 3, 5, 6, 9, 10, 5, 6, 10, 3, 5, 6, 4, 5, 6, 2, 3, 6, 2, 7, 9, 1, 5, 10, 8, 9, 10, 7, 9, 10, 1, 3, 5, 5, 6, 7, 2, 3, 10, 2, 4, 7, 1, 4, 9, 1, 2, 4, 2, 4, 10, 1, 4, 5, 1, 4, 8, 1, 2, 9, 3, 5, 6, 6, 7, 10, 1, 3, 5, 3, 4, 6, 1, 7, 10, 5, 7, 10, 3, 4, 6, 4, 5, 6, 3, 6, 9, 2, 4, 5, 6, 8, 9, 4, 5, 9, 8, 9, 10, 1, 3, 5];
rreq = [|9, 8, 8, 8, 6, 3, 5, 5, 4, 9, 6, 5, 9, 5, 4, 7, 6, 4, 9, 9, 9, 10, 8, 6, 1, 1, 1, 2, 2, 2, 7, 3, 3, 5, 5, 5, 5, 5, 2, 9, 9, 9, 4, 3, 2, 4, 2, 2, 7, 7, 6, 6, 5, 3, 9, 8, 8, 9, 5, 2, 5, 5, 5, 9, 8, 7, 5, 4, 4, 7, 6, 2, 4, 3, 3, 5, 3, 3, 6, 4, 3, 5, 3, 2, 3, 3, 3, 3, 3, 3, 8, 8, 8, 7, 4, 2, 10, 4, 3, 4, 4, 3, 9, 7, 6, 8, 7, 5, 7, 7, 7, 6, 5, 3, 4, 3, 3, 8, 7, 5, 8, 8, 8, 6, 4, 3, 9, 7, 7, 8, 5, 2, 7, 6, 2, 8, 8, 8, 5, 4, 4, 7, 7, 7, 7, 6, 5, 2, 2, 2
 |6, 6, 6, 7, 5, 5, 8, 4, 2, 7, 5, 3, 10, 8, 7, 1, 1, 1, 9, 5, 4, 3, 3, 2, 9, 8, 8, 7, 7, 7, 2, 1, 1, 9, 6, 4, 4, 4, 3, 9, 9, 9, 8, 7, 7, 6, 5, 3, 4, 3, 3, 5, 3, 3, 8, 5, 5, 6, 6, 4, 7, 6, 6, 5, 5, 4, 4, 3, 3, 5, 5, 5, 2, 2, 2, 8, 8, 8, 6, 5, 4, 8, 7, 6, 8, 6, 4, 8, 7, 7, 7, 6, 4, 8, 5, 3, 4, 4, 2, 7, 5, 4, 5, 5, 4, 3, 2, 2, 5, 5, 5, 10, 5, 1, 9, 9, 8, 6, 4, 3, 8, 8, 8, 7, 5, 1, 2, 1, 1, 7, 7, 7, 6, 5, 5, 4, 2, 2, 4, 3, 2, 3, 2, 1, 2, 2, 2, 7, 6, 4
 |5, 3, 3, 8, 4, 4, 6, 5, 5, 8, 5, 5, 3, 2, 2, 7, 6, 5, 5, 4, 3, 7, 7, 7, 8, 5, 4, 8, 7, 7, 3, 2, 1, 8, 7, 6, 4, 2, 2, 4, 4, 3, 5, 5, 5, 6, 4, 2, 4, 4, 2, 8, 7, 7, 6, 6, 3, 2, 2, 2, 7, 3, 2, 10, 7, 7, 8, 6, 4, 4, 2, 2, 6, 4, 4, 3, 2, 1, 10, 9, 9, 2, 2, 2, 10, 9, 8, 4, 4, 4, 3, 3, 3, 8, 7, 7, 2, 2, 1, 6, 6, 4, 3, 3, 2, 3, 2, 1, 6, 4, 4, 4, 3, 1, 10, 8, 7, 5, 3, 3, 5, 4, 4, 9, 6, 4, 10, 9, 7, 7, 5, 4, 7, 5, 5, 3, 3, 2, 8, 6, 4, 8, 8, 8, 10, 7, 4, 9, 9, 9
 |9, 8, 6, 10, 9, 8, 8, 6, 4, 10, 8, 8, 10, 5, 5, 9, 8, 8, 7, 3, 2, 8, 8, 6, 9, 6, 4, 9, 8, 8, 6, 5, 5, 7, 4, 2, 7, 5, 3, 9, 8, 7, 4, 4, 4, 6, 4, 4, 7, 4, 2, 5, 5, 5, 8, 4, 2, 3, 2, 2, 8, 7, 3, 9, 9, 9, 4, 4, 4, 9, 7, 7, 8, 8, 7, 4, 4, 4, 5, 5, 5, 7, 6, 6, 3, 3, 3, 3, 3, 3, 3, 2, 1, 4, 4, 4, 6, 5, 4, 5, 2, 1, 5, 5, 5, 3, 3, 3, 4, 4, 2, 8, 8, 7, 1, 1, 1, 7, 5, 3, 7, 6, 4, 3, 2, 2, 4, 3, 3, 6, 4, 3, 9, 4, 4, 5, 5, 5, 6, 5, 4, 3, 3, 1, 6, 5, 3, 9, 9, 8
 |5, 4, 3, 8, 7, 7, 7, 6, 6, 5, 5, 2, 4, 4, 4, 6, 6, 4, 7, 6, 5, 5, 4, 1, 9, 7, 7, 10, 8, 7, 8, 6, 5, 8, 6, 2, 10, 8, 8, 5, 5, 5, 4, 3, 2, 8, 5, 5, 3, 3, 2, 7, 6, 4, 10, 7, 2, 6, 5, 4, 3, 1, 1, 1, 1, 1, 3, 3, 3, 10, 10, 10, 5, 2, 2, 7, 5, 2, 6, 5, 5, 2, 2, 1, 6, 6, 6, 2, 2, 2, 4, 2, 2, 2, 1, 1, 6, 5, 4, 1, 1, 1, 9, 7, 4, 8, 7, 2, 5, 5, 3, 8, 4, 4, 5, 5, 4, 4, 4, 4, 6, 4, 1, 5, 4, 3, 4, 3, 2, 8, 6, 2, 2, 1, 1, 3, 3, 2, 6, 5, 2, 7, 5, 3, 9, 8, 7, 5, 5, 5
 |5, 4, 4, 7, 5, 2, 4, 3, 3, 1, 1, 1, 9, 9, 9, 8, 8, 7, 7, 5, 5, 4, 3, 2, 10, 8, 6, 8, 7, 5, 8, 3, 1, 3, 2, 2, 5, 4, 3, 8, 7, 5, 3, 2, 1, 4, 3, 3, 6, 5, 5, 7, 6, 6, 6, 3, 1, 6, 5, 5, 8, 6, 6, 5, 5, 5, 3, 3, 2, 8, 6, 6, 7, 5, 5, 7, 6, 3, 7, 6, 4, 6, 6, 6, 2, 2, 2, 9, 9, 8, 9, 9, 9, 9, 8, 8, 5, 4, 4, 10, 6, 3, 7, 7, 6, 6, 6, 4, 9, 7, 5, 6, 6, 6, 3, 2, 2, 5, 3, 2, 6, 4, 2, 9, 8, 8, 6, 6, 4, 7, 5, 3, 9, 9, 9, 6, 4, 3, 5, 4, 3, 2, 2, 2, 4, 4, 3, 10, 8, 8|];